G = 50.0;
costo = [200.0, 300.0, 500.0];
capacidad = [1500.0, 1700.0, 1300.0];
num_clientes = 3;
num_dias = 3;
num_plantas = 3;
pago = [150.0, 200.0, 280.0];
demanda = [|1110.0, 1300.0, 1500.0
|1700.0, 1500.0, 1250.0
|1000.0, 2000.0, 3000.0
        |];
